[2026-03-23T16:11:35.224Z] Pipeline "set_ds_1_ds_1_s003_g003" → 2026_03_23_16_11_35_set_ds_1_ds_1_s003_g003_max.sol
Set parameter WLSAccessID
Set parameter WLSSecret
Set parameter LicenseID to value 2792458
Set parameter LogFile to value "gurobi.log"
Using license file /root/gurobi.lic
Academic license 2792458 - for non-commercial use only - registered to an___@studenti.unipg.it

Gurobi Optimizer version 13.0.1 build v13.0.1rc0 (linux64 - "Ubuntu 24.04.4 LTS")
Copyright (c) 2026, Gurobi Optimization, LLC

Warning: Duplicate section found (read 'binary') - Is a variable name equal to an LP file format keyword?
Warning: Duplicate section found (read 'binary') - Is a variable name equal to an LP file format keyword?
Warning: Duplicate section found (read 'binary') - Is a variable name equal to an LP file format keyword?
Warning: Duplicate section found (read 'binary') - Is a variable name equal to an LP file format keyword?
Warning: Duplicate section found (read 'binary') - Is a variable name equal to an LP file format keyword?
Warning: Duplicate section found (read 'binary') - Is a variable name equal to an LP file format keyword?
Warning: Duplicate section found (read 'binary') - Is a variable name equal to an LP file format keyword?
Warning: Duplicate section found (read 'binary') - Is a variable name equal to an LP file format keyword?
Warning: Duplicate section found (read 'binary') - Is a variable name equal to an LP file format keyword?
Warning: Duplicate section found (read 'binary') - Is a variable name equal to an LP file format keyword?
Warning: Further warnings of this type will be omitted.
Read LP format model from file /root/bgw/data/uploads/2026_03_23_16_11_35_set_ds_1_ds_1_s003_g003_max.lp
Reading time = 0.00 seconds
: 1234 rows, 199 columns, 3371 nonzeros

Using Gurobi shared library /opt/gurobi1301/linux64/lib/libgurobi.so.13.0.1

CPU model: AMD EPYC-Genoa Processor, instruction set [SSE2|AVX|AVX2|AVX512]
Thread count: 16 physical cores, 16 logical processors, using up to 16 threads

Academic license 2792458 - for non-commercial use only - registered to an___@studenti.unipg.it
Optimize a model with 1234 rows, 199 columns and 3371 nonzeros (Max)
Model fingerprint: 0xdf40586f
Model has 53 linear objective coefficients
Variable types: 66 continuous, 133 integer (133 binary)
Coefficient statistics:
  Matrix range     [1e+00, 1e+01]
  Objective range  [1e+00, 1e+00]
  Bounds range     [1e+00, 1e+00]
  RHS range        [1e+00, 2e+01]

Found heuristic solution: objective 53.0000000
Presolve removed 603 rows and 87 columns
Presolve time: 0.00s
Presolved: 631 rows, 112 columns, 1983 nonzeros
Variable types: 0 continuous, 112 integer (103 binary)
Found heuristic solution: objective 85.0000000

Root relaxation: objective 2.940000e+02, 67 iterations, 0.00 seconds (0.00 work units)

    Nodes    |    Current Node    |     Objective Bounds      |     Work
 Expl Unexpl |  Obj  Depth IntInf | Incumbent    BestBd   Gap | It/Node Time

     0     0  294.00000    0   44   85.00000  294.00000   246%     -    0s
H    0     0                      99.0000000  294.00000   197%     -    0s
H    0     0                     102.0000000  294.00000   188%     -    0s
H    0     0                     109.0000000  294.00000   170%     -    0s
H    0     0                     113.0000000  294.00000   160%     -    0s
     0     0  294.00000    0   42  113.00000  294.00000   160%     -    0s
H    0     0                     115.0000000  294.00000   156%     -    0s
H    0     0                     118.0000000  294.00000   149%     -    0s
H    0     0                     121.0000000  294.00000   143%     -    0s
H    0     0                     124.0000000  294.00000   137%     -    0s
     0     0  294.00000    0   44  124.00000  294.00000   137%     -    0s
     0     0  294.00000    0   42  124.00000  294.00000   137%     -    0s
     0     0  294.00000    0   44  124.00000  294.00000   137%     -    0s
     0     0  294.00000    0   44  124.00000  294.00000   137%     -    0s
     0     0  294.00000    0   44  124.00000  294.00000   137%     -    0s
H    0     0                     127.0000000  294.00000   131%     -    0s
     0     0  294.00000    0   44  127.00000  294.00000   131%     -    0s
     0     0  294.00000    0   44  127.00000  294.00000   131%     -    0s
H    0     0                     131.0000000  294.00000   124%     -    0s
     0     0  294.00000    0   44  131.00000  294.00000   124%     -    0s
     0     0  294.00000    0   43  131.00000  294.00000   124%     -    0s
     0     0  294.00000    0   41  131.00000  294.00000   124%     -    0s
     0     0  294.00000    0   43  131.00000  294.00000   124%     -    0s
     0     0  294.00000    0   43  131.00000  294.00000   124%     -    0s
     0     0  294.00000    0   43  131.00000  294.00000   124%     -    0s
     0     0  294.00000    0   43  131.00000  294.00000   124%     -    0s
     0     0  294.00000    0   43  131.00000  294.00000   124%     -    0s
     0     2  294.00000    0   39  131.00000  294.00000   124%     -    0s
H   59    96                     134.0000000  294.00000   119%  31.1    0s
H   99    96                     138.0000000  294.00000   113%  31.2    0s
 112012  9533 infeasible   35       138.00000  162.00000  17.4%  16.5    5s

Cutting planes:
  Gomory: 1
  Inf proof: 3

Explored 154445 nodes (2694577 simplex iterations) in 6.68 seconds (8.66 work units)
Thread count was 16 (of 16 available processors)

Solution count 10: 138 134 131 ... 109

Optimal solution found (tolerance 1.00e-04)
Best objective 1.380000000000e+02, best bound 1.380000000000e+02, gap 0.0000%

Wrote result file '/root/bgw/data/results/2026_03_23_16_11_35_set_ds_1_ds_1_s003_g003_max.sol'

